mixintcount/benchmarks/random_v2l/5_5_44.smt2
(set-logic QF_LIA)
(set-info :ran/ran2.smt2)
(set-info :smt-lib-version 2.0)
(declare-fun x1 () Int)
(declare-fun x2 () Int)
(declare-fun x3 () Int)
(declare-fun x4 () Int)
(declare-fun x5 () Int)
(assert (<= (+ (* (- 2) x1) (* (- 9) x2) (* 9 x3) (* 5 x4) (* 5 x5) ) 23))
(assert (<= (+ (* 9 x1) (* 3 x2) (* 7 x3) (* (- 5) x4) (* (- 5) x5) ) 25))
(assert (<= (+ (* (- 6) x1) (* 4 x2) (* (- 1) x3) (* 8 x4) (* 9 x5) ) 10))
(assert (<= (+ (* 2 x1) (* 9 x2) (* 3 x3) (* (- 2) x4) (* (- 10) x5) ) (- 32)))
(assert (<= (+ (* (- 8) x1) (* 9 x2) (* 8 x3) (* 5 x4) (* (- 3) x5) ) (- 36)))
(assert (<= (+ (* (- 9) x1) (* 3 x2) (* 4 x3) (* 9 x4) (* (- 5) x5) ) (- 33)))
(assert (<= (+ (* (- 5) x1) (* (- 6) x2) (* 9 x3) (* (- 9) x4) (* (- 1) x5) ) 0))
(assert (<= (+ (* (- 8) x1) (* 1 x2) (* 8 x3) (* (- 1) x4) (* (- 4) x5) ) (- 12)))
(assert (<= (+ (* 6 x1) (* 8 x2) (* 2 x3) (* (- 2) x4) (* (- 7) x5) ) 18))
(assert (<= (+ (* 5 x1) (* (- 4) x2) (* (- 3) x3) (* 0 x4) (* (- 10) x5) ) 15))
(assert (<= (+ (* 1 x1) (* 0 x2) (* 0 x3) (* 0 x4) (* 0 x5) ) 44))
(assert (<= (+ (* (- 1) x1) (* 0 x2) (* 0 x3) (* 0 x4) (* 0 x5) ) 44))
(assert (<= (+ (* 0 x1) (* 1 x2) (* 0 x3) (* 0 x4) (* 0 x5) ) 44))
(assert (<= (+ (* 0 x1) (* (- 1) x2) (* 0 x3) (* 0 x4) (* 0 x5) ) 44))
(assert (<= (+ (* 0 x1) (* 0 x2) (* 1 x3) (* 0 x4) (* 0 x5) ) 44))
(assert (<= (+ (* 0 x1) (* 0 x2) (* (- 1) x3) (* 0 x4) (* 0 x5) ) 44))
(assert (<= (+ (* 0 x1) (* 0 x2) (* 0 x3) (* 1 x4) (* 0 x5) ) 44))
(assert (<= (+ (* 0 x1) (* 0 x2) (* 0 x3) (* (- 1) x4) (* 0 x5) ) 44))
(assert (<= (+ (* 0 x1) (* 0 x2) (* 0 x3) (* 0 x4) (* 1 x5) ) 44))
(assert (<= (+ (* 0 x1) (* 0 x2) (* 0 x3) (* 0 x4) (* (- 1) x5) ) 44))
