mixintcount/benchmarks/random_v2l/5_5_44.in
20 7
#	x1	x2	x3	x4	x5;		0 = Real; 1 = Integer
	1	1	1	1	1
1	-2	-9	9	5	5	23
1	9	3	7	-5	-5	25
1	-6	4	-1	8	9	10
1	2	9	3	-2	-10	-32
1	-8	9	8	5	-3	-36
1	-9	3	4	9	-5	-33
1	-5	-6	9	-9	-1	0
1	-8	1	8	-1	-4	-12
1	6	8	2	-2	-7	18
1	5	-4	-3	0	-10	15
1	1	0	0	0	0	44
1	-1	0	0	0	0	44
1	0	1	0	0	0	44
1	0	-1	0	0	0	44
1	0	0	1	0	0	44
1	0	0	-1	0	0	44
1	0	0	0	1	0	44
1	0	0	0	-1	0	44
1	0	0	0	0	1	44
1	0	0	0	0	-1	44
